p sp 50 2450
a 1 2 353
a 1 3 765
a 1 4 67
a 1 5 83
a 1 6 180
a 1 7 336
a 1 8 924
a 1 9 370
a 1 10 577
a 1 11 673
a 1 12 874
a 1 13 906
a 1 14 54
a 1 15 641
a 1 16 666
a 1 17 795
a 1 18 353
a 1 19 489
a 1 20 581
a 1 21 240
a 1 22 220
a 1 23 46
a 1 24 663
a 1 25 575
a 1 26 260
a 1 27 989
a 1 28 467
a 1 29 926
a 1 30 509
a 1 31 991
a 1 32 80
a 1 33 935
a 1 34 535
a 1 35 566
a 1 36 934
a 1 37 484
a 1 38 260
a 1 39 94
a 1 40 249
a 1 41 482
a 1 42 495
a 1 43 860
a 1 44 612
a 1 45 978
a 1 46 525
a 1 47 498
a 1 48 831
a 1 49 779
a 1 50 847
a 2 1 504
a 2 3 130
a 2 4 993
a 2 5 158
a 2 6 164
a 2 7 503
a 2 8 65
a 2 9 509
a 2 10 995
a 2 11 867
a 2 12 338
a 2 13 355
a 2 14 381
a 2 15 612
a 2 16 668
a 2 17 725
a 2 18 788
a 2 19 948
a 2 20 20
a 2 21 415
a 2 22 52
a 2 23 148
a 2 24 814
a 2 25 116
a 2 26 52
a 2 27 905
a 2 28 345
a 2 29 57
a 2 30 892
a 2 31 115
a 2 32 598
a 2 33 966
a 2 34 757
a 2 35 584
a 2 36 17
a 2 37 732
a 2 38 411
a 2 39 101
a 2 40 606
a 2 41 383
a 2 42 405
a 2 43 693
a 2 44 180
a 2 45 764
a 2 46 427
a 2 47 583
a 2 48 997
a 2 49 764
a 2 50 111
a 3 1 411
a 3 2 387
a 3 4 359
a 3 5 980
a 3 6 261
a 3 7 308
a 3 8 74
a 3 9 546
a 3 10 105
a 3 11 63
a 3 12 689
a 3 13 855
a 3 14 372
a 3 15 973
a 3 16 252
a 3 17 214
a 3 18 257
a 3 19 536
a 3 20 294
a 3 21 300
a 3 22 889
a 3 23 902
a 3 24 680
a 3 25 909
a 3 26 209
a 3 27 70
a 3 28 306
a 3 29 547
a 3 30 231
a 3 31 873
a 3 32 186
a 3 33 359
a 3 34 157
a 3 35 794
a 3 36 75
a 3 37 93
a 3 38 540
a 3 39 158
a 3 40 463
a 3 41 404
a 3 42 650
a 3 43 444
a 3 44 173
a 3 45 331
a 3 46 884
a 3 47 318
a 3 48 795
a 3 49 661
a 3 50 164
a 4 1 334
a 4 2 371
a 4 3 725
a 4 5 107
a 4 6 17
a 4 7 730
a 4 8 58
a 4 9 279
a 4 10 639
a 4 11 380
a 4 12 668
a 4 13 278
a 4 14 304
a 4 15 297
a 4 16 212
a 4 17 681
a 4 18 552
a 4 19 115
a 4 20 960
a 4 21 82
a 4 22 283
a 4 23 941
a 4 24 964
a 4 25 469
a 4 26 961
a 4 27 941
a 4 28 225
a 4 29 842
a 4 30 371
a 4 31 290
a 4 32 273
a 4 33 561
a 4 34 563
a 4 35 534
a 4 36 864
a 4 37 204
a 4 38 664
a 4 39 884
a 4 40 692
a 4 41 336
a 4 42 135
a 4 43 458
a 4 44 142
a 4 45 755
a 4 46 842
a 4 47 688
a 4 48 367
a 4 49 79
a 4 50 100
a 5 1 919
a 5 2 75
a 5 3 629
a 5 4 371
a 5 6 731
a 5 7 8
a 5 8 811
a 5 9 117
a 5 10 617
a 5 11 879
a 5 12 526
a 5 13 482
a 5 14 537
a 5 15 178
a 5 16 152
a 5 17 408
a 5 18 756
a 5 19 964
a 5 20 202
a 5 21 937
a 5 22 926
a 5 23 460
a 5 24 738
a 5 25 694
a 5 26 532
a 5 27 625
a 5 28 286
a 5 29 927
a 5 30 783
a 5 31 126
a 5 32 303
a 5 33 128
a 5 34 287
a 5 35 647
a 5 36 695
a 5 37 774
a 5 38 137
a 5 39 802
a 5 40 2
a 5 41 471
a 5 42 105
a 5 43 767
a 5 44 744
a 5 45 477
a 5 46 272
a 5 47 912
a 5 48 577
a 5 49 715
a 5 50 166
a 6 1 473
a 6 2 815
a 6 3 894
a 6 4 448
a 6 5 712
a 6 7 975
a 6 8 988
a 6 9 531
a 6 10 277
a 6 11 95
a 6 12 312
a 6 13 534
a 6 14 739
a 6 15 625
a 6 16 11
a 6 17 228
a 6 18 533
a 6 19 238
a 6 20 836
a 6 21 671
a 6 22 737
a 6 23 812
a 6 24 337
a 6 25 574
a 6 26 680
a 6 27 0
a 6 28 123
a 6 29 727
a 6 30 451
a 6 31 204
a 6 32 302
a 6 33 829
a 6 34 951
a 6 35 930
a 6 36 405
a 6 37 786
a 6 38 314
a 6 39 958
a 6 40 858
a 6 41 941
a 6 42 707
a 6 43 815
a 6 44 171
a 6 45 790
a 6 46 405
a 6 47 957
a 6 48 814
a 6 49 604
a 6 50 956
a 7 1 204
a 7 2 557
a 7 3 205
a 7 4 597
a 7 5 848
a 7 6 978
a 7 8 774
a 7 9 650
a 7 10 999
a 7 11 404
a 7 12 510
a 7 13 788
a 7 14 497
a 7 15 703
a 7 16 311
a 7 17 78
a 7 18 11
a 7 19 152
a 7 20 869
a 7 21 248
a 7 22 879
a 7 23 782
a 7 24 644
a 7 25 697
a 7 26 612
a 7 27 650
a 7 28 221
a 7 29 548
a 7 30 956
a 7 31 607
a 7 32 809
a 7 33 675
a 7 34 80
a 7 35 746
a 7 36 164
a 7 37 974
a 7 38 870
a 7 39 778
a 7 40 795
a 7 41 317
a 7 42 43
a 7 43 224
a 7 44 878
a 7 45 601
a 7 46 169
a 7 47 192
a 7 48 54
a 7 49 335
a 7 50 410
a 8 1 766
a 8 2 975
a 8 3 548
a 8 4 442
a 8 5 98
a 8 6 119
a 8 7 329
a 8 9 232
a 8 10 260
a 8 11 404
a 8 12 0
a 8 13 109
a 8 14 591
a 8 15 178
a 8 16 12
a 8 17 610
a 8 18 561
a 8 19 850
a 8 20 357
a 8 21 182
a 8 22 729
a 8 23 612
a 8 24 969
a 8 25 366
a 8 26 504
a 8 27 85
a 8 28 196
a 8 29 243
a 8 30 112
a 8 31 57
a 8 32 536
a 8 33 535
a 8 34 239
a 8 35 762
a 8 36 893
a 8 37 543
a 8 38 941
a 8 39 806
a 8 40 234
a 8 41 537
a 8 42 489
a 8 43 36
a 8 44 689
a 8 45 311
a 8 46 479
a 8 47 895
a 8 48 654
a 8 49 827
a 8 50 436
a 9 1 521
a 9 2 424
a 9 3 64
a 9 4 256
a 9 5 905
a 9 6 86
a 9 7 647
a 9 8 706
a 9 10 541
a 9 11 347
a 9 12 566
a 9 13 831
a 9 14 776
a 9 15 43
a 9 16 986
a 9 17 4
a 9 18 548
a 9 19 955
a 9 20 326
a 9 21 286
a 9 22 377
a 9 23 484
a 9 24 137
a 9 25 377
a 9 26 836
a 9 27 295
a 9 28 836
a 9 29 661
a 9 30 288
a 9 31 561
a 9 32 233
a 9 33 850
a 9 34 536
a 9 35 313
a 9 36 989
a 9 37 637
a 9 38 250
a 9 39 557
a 9 40 925
a 9 41 112
a 9 42 981
a 9 43 824
a 9 44 700
a 9 45 733
a 9 46 227
a 9 47 118
a 9 48 307
a 9 49 347
a 9 50 167
a 10 1 526
a 10 2 392
a 10 3 15
a 10 4 976
a 10 5 23
a 10 6 751
a 10 7 708
a 10 8 476
a 10 9 579
a 10 11 731
a 10 12 307
a 10 13 149
a 10 14 782
a 10 15 125
a 10 16 75
a 10 17 199
a 10 18 382
a 10 19 523
a 10 20 362
a 10 21 647
a 10 22 101
a 10 23 186
a 10 24 465
a 10 25 501
a 10 26 58
a 10 27 12
a 10 28 755
a 10 29 466
a 10 30 555
a 10 31 891
a 10 32 133
a 10 33 18
a 10 34 278
a 10 35 619
a 10 36 184
a 10 37 19
a 10 38 843
a 10 39 251
a 10 40 354
a 10 41 420
a 10 42 803
a 10 43 964
a 10 44 944
a 10 45 502
a 10 46 291
a 10 47 192
a 10 48 719
a 10 49 438
a 10 50 249
a 11 1 780
a 11 2 261
a 11 3 944
a 11 4 549
a 11 5 502
a 11 6 180
a 11 7 797
a 11 8 433
a 11 9 686
a 11 10 903
a 11 12 869
a 11 13 673
a 11 14 905
a 11 15 691
a 11 16 501
a 11 17 124
a 11 18 553
a 11 19 559
a 11 20 610
a 11 21 424
a 11 22 613
a 11 23 939
a 11 24 28
a 11 25 833
a 11 26 239
a 11 27 252
a 11 28 212
a 11 29 338
a 11 30 897
a 11 31 54
a 11 32 581
a 11 33 489
a 11 34 142
a 11 35 152
a 11 36 542
a 11 37 207
a 11 38 143
a 11 39 411
a 11 40 781
a 11 41 133
a 11 42 699
a 11 43 915
a 11 44 29
a 11 45 360
a 11 46 724
a 11 47 596
a 11 48 545
a 11 49 558
a 11 50 809
a 12 1 421
a 12 2 406
a 12 3 438
a 12 4 782
a 12 5 64
a 12 6 164
a 12 7 139
a 12 8 429
a 12 9 655
a 12 10 165
a 12 11 993
a 12 13 128
a 12 14 680
a 12 15 396
a 12 16 198
a 12 17 483
a 12 18 794
a 12 19 879
a 12 20 250
a 12 21 142
a 12 22 725
a 12 23 645
a 12 24 959
a 12 25 537
a 12 26 598
a 12 27 616
a 12 28 897
a 12 29 982
a 12 30 200
a 12 31 156
a 12 32 678
a 12 33 227
a 12 34 923
a 12 35 965
a 12 36 422
a 12 37 388
a 12 38 440
a 12 39 885
a 12 40 19
a 12 41 860
a 12 42 346
a 12 43 707
a 12 44 434
a 12 45 941
a 12 46 678
a 12 47 748
a 12 48 56
a 12 49 418
a 12 50 299
a 13 1 133
a 13 2 206
a 13 3 284
a 13 4 811
a 13 5 246
a 13 6 349
a 13 7 466
a 13 8 663
a 13 9 48
a 13 10 874
a 13 11 230
a 13 12 535
a 13 14 887
a 13 15 458
a 13 16 455
a 13 17 655
a 13 18 793
a 13 19 7
a 13 20 201
a 13 21 698
a 13 22 109
a 13 23 832
a 13 24 870
a 13 25 403
a 13 26 53
a 13 27 20
a 13 28 736
a 13 29 502
a 13 30 515
a 13 31 472
a 13 32 755
a 13 33 211
a 13 34 711
a 13 35 643
a 13 36 191
a 13 37 163
a 13 38 102
a 13 39 729
a 13 40 420
a 13 41 360
a 13 42 228
a 13 43 789
a 13 44 405
a 13 45 609
a 13 46 99
a 13 47 948
a 13 48 925
a 13 49 595
a 13 50 401
a 14 1 656
a 14 2 316
a 14 3 240
a 14 4 542
a 14 5 283
a 14 6 561
a 14 7 532
a 14 8 138
a 14 9 287
a 14 10 177
a 14 11 202
a 14 12 19
a 14 13 172
a 14 15 519
a 14 16 259
a 14 17 589
a 14 18 10
a 14 19 89
a 14 20 22
a 14 21 199
a 14 22 242
a 14 23 985
a 14 24 257
a 14 25 740
a 14 26 896
a 14 27 425
a 14 28 894
a 14 29 711
a 14 30 371
a 14 31 261
a 14 32 142
a 14 33 637
a 14 34 371
a 14 35 76
a 14 36 921
a 14 37 518
a 14 38 890
a 14 39 591
a 14 40 819
a 14 41 972
a 14 42 611
a 14 43 840
a 14 44 249
a 14 45 467
a 14 46 766
a 14 47 220
a 14 48 497
a 14 49 575
a 14 50 905
a 15 1 769
a 15 2 293
a 15 3 512
a 15 4 327
a 15 5 224
a 15 6 808
a 15 7 304
a 15 8 221
a 15 9 723
a 15 10 94
a 15 11 883
a 15 12 439
a 15 13 487
a 15 14 536
a 15 16 925
a 15 17 119
a 15 18 147
a 15 19 134
a 15 20 399
a 15 21 798
a 15 22 159
a 15 23 298
a 15 24 899
a 15 25 673
a 15 26 14
a 15 27 523
a 15 28 907
a 15 29 916
a 15 30 763
a 15 31 183
a 15 32 413
a 15 33 450
a 15 34 175
a 15 35 839
a 15 36 337
a 15 37 98
a 15 38 129
a 15 39 22
a 15 40 256
a 15 41 587
a 15 42 372
a 15 43 106
a 15 44 239
a 15 45 689
a 15 46 500
a 15 47 481
a 15 48 305
a 15 49 196
a 15 50 848
a 16 1 501
a 16 2 240
a 16 3 664
a 16 4 801
a 16 5 712
a 16 6 125
a 16 7 295
a 16 8 465
a 16 9 968
a 16 10 91
a 16 11 24
a 16 12 837
a 16 13 795
a 16 14 983
a 16 15 323
a 16 17 547
a 16 18 44
a 16 19 938
a 16 20 514
a 16 21 628
a 16 22 500
a 16 23 477
a 16 24 506
a 16 25 546
a 16 26 665
a 16 27 835
a 16 28 911
a 16 29 211
a 16 30 625
a 16 31 554
a 16 32 187
a 16 33 164
a 16 34 655
a 16 35 713
a 16 36 342
a 16 37 613
a 16 38 421
a 16 39 163
a 16 40 791
a 16 41 475
a 16 42 512
a 16 43 363
a 16 44 577
a 16 45 49
a 16 46 439
a 16 47 582
a 16 48 310
a 16 49 125
a 16 50 524
a 17 1 51
a 17 2 696
a 17 3 153
a 17 4 920
a 17 5 637
a 17 6 274
a 17 7 311
a 17 8 778
a 17 9 447
a 17 10 315
a 17 11 139
a 17 12 713
a 17 13 862
a 17 14 202
a 17 15 549
a 17 16 997
a 17 18 955
a 17 19 658
a 17 20 276
a 17 21 641
a 17 22 590
a 17 23 863
a 17 24 723
a 17 25 83
a 17 26 995
a 17 27 359
a 17 28 735
a 17 29 338
a 17 30 184
a 17 31 810
a 17 32 526
a 17 33 863
a 17 34 60
a 17 35 330
a 17 36 529
a 17 37 148
a 17 38 714
a 17 39 147
a 17 40 722
a 17 41 551
a 17 42 67
a 17 43 187
a 17 44 30
a 17 45 591
a 17 46 911
a 17 47 667
a 17 48 708
a 17 49 589
a 17 50 548
a 18 1 155
a 18 2 44
a 18 3 60
a 18 4 196
a 18 5 185
a 18 6 737
a 18 7 762
a 18 8 492
a 18 9 866
a 18 10 327
a 18 11 60
a 18 12 607
a 18 13 671
a 18 14 564
a 18 15 149
a 18 16 678
a 18 17 698
a 18 19 714
a 18 20 415
a 18 21 58
a 18 22 261
a 18 23 731
a 18 24 735
a 18 25 720
a 18 26 825
a 18 27 971
a 18 28 541
a 18 29 484
a 18 30 380
a 18 31 634
a 18 32 153
a 18 33 70
a 18 34 449
a 18 35 599
a 18 36 15
a 18 37 687
a 18 38 828
a 18 39 125
a 18 40 379
a 18 41 860
a 18 42 507
a 18 43 281
a 18 44 541
a 18 45 2
a 18 46 413
a 18 47 809
a 18 48 646
a 18 49 535
a 18 50 662
a 19 1 870
a 19 2 137
a 19 3 327
a 19 4 521
a 19 5 762
a 19 6 490
a 19 7 428
a 19 8 724
a 19 9 187
a 19 10 106
a 19 11 125
a 19 12 423
a 19 13 558
a 19 14 488
a 19 15 79
a 19 16 804
a 19 17 212
a 19 18 280
a 19 20 302
a 19 21 256
a 19 22 87
a 19 23 976
a 19 24 389
a 19 25 432
a 19 26 325
a 19 27 782
a 19 28 81
a 19 29 237
a 19 30 932
a 19 31 691
a 19 32 801
a 19 33 872
a 19 34 812
a 19 35 274
a 19 36 136
a 19 37 454
a 19 38 848
a 19 39 704
a 19 40 505
a 19 41 36
a 19 42 684
a 19 43 838
a 19 44 706
a 19 45 155
a 19 46 759
a 19 47 234
a 19 48 137
a 19 49 549
a 19 50 826
a 20 1 425
a 20 2 929
a 20 3 341
a 20 4 472
a 20 5 392
a 20 6 38
a 20 7 803
a 20 8 859
a 20 9 397
a 20 10 548
a 20 11 181
a 20 12 381
a 20 13 890
a 20 14 539
a 20 15 815
a 20 16 716
a 20 17 26
a 20 18 813
a 20 19 627
a 20 21 323
a 20 22 874
a 20 23 750
a 20 24 177
a 20 25 815
a 20 26 769
a 20 27 131
a 20 28 888
a 20 29 103
a 20 30 823
a 20 31 139
a 20 32 994
a 20 33 643
a 20 34 961
a 20 35 720
a 20 36 772
a 20 37 166
a 20 38 899
a 20 39 150
a 20 40 314
a 20 41 732
a 20 42 732
a 20 43 35
a 20 44 143
a 20 45 964
a 20 46 957
a 20 47 853
a 20 48 659
a 20 49 398
a 20 50 257
a 21 1 878
a 21 2 866
a 21 3 733
a 21 4 6
a 21 5 211
a 21 6 515
a 21 7 397
a 21 8 275
a 21 9 320
a 21 10 6
a 21 11 261
a 21 12 415
a 21 13 341
a 21 14 917
a 21 15 374
a 21 16 40
a 21 17 268
a 21 18 651
a 21 19 275
a 21 20 801
a 21 22 559
a 21 23 879
a 21 24 759
a 21 25 49
a 21 26 470
a 21 27 25
a 21 28 937
a 21 29 971
a 21 30 423
a 21 31 20
a 21 32 82
a 21 33 832
a 21 34 916
a 21 35 306
a 21 36 868
a 21 37 678
a 21 38 152
a 21 39 859
a 21 40 909
a 21 41 908
a 21 42 681
a 21 43 573
a 21 44 426
a 21 45 675
a 21 46 223
a 21 47 244
a 21 48 708
a 21 49 670
a 21 50 691
a 22 1 379
a 22 2 37
a 22 3 410
a 22 4 825
a 22 5 625
a 22 6 971
a 22 7 766
a 22 8 134
a 22 9 173
a 22 10 468
a 22 11 92
a 22 12 417
a 22 13 682
a 22 14 264
a 22 15 102
a 22 16 933
a 22 17 83
a 22 18 738
a 22 19 649
a 22 20 453
a 22 21 503
a 22 23 30
a 22 24 308
a 22 25 383
a 22 26 222
a 22 27 172
a 22 28 177
a 22 29 449
a 22 30 473
a 22 31 35
a 22 32 939
a 22 33 47
a 22 34 725
a 22 35 478
a 22 36 62
a 22 37 274
a 22 38 48
a 22 39 426
a 22 40 2
a 22 41 201
a 22 42 642
a 22 43 901
a 22 44 592
a 22 45 964
a 22 46 245
a 22 47 304
a 22 48 418
a 22 49 467
a 22 50 157
a 23 1 318
a 23 2 207
a 23 3 995
a 23 4 305
a 23 5 906
a 23 6 804
a 23 7 888
a 23 8 935
a 23 9 772
a 23 10 363
a 23 11 444
a 23 12 235
a 23 13 92
a 23 14 759
a 23 15 942
a 23 16 880
a 23 17 261
a 23 18 918
a 23 19 307
a 23 20 948
a 23 21 219
a 23 22 157
a 23 24 329
a 23 25 272
a 23 26 397
a 23 27 799
a 23 28 830
a 23 29 614
a 23 30 115
a 23 31 558
a 23 32 949
a 23 33 233
a 23 34 920
a 23 35 256
a 23 36 472
a 23 37 311
a 23 38 728
a 23 39 682
a 23 40 462
a 23 41 818
a 23 42 755
a 23 43 880
a 23 44 878
a 23 45 370
a 23 46 160
a 23 47 155
a 23 48 658
a 23 49 356
a 23 50 698
a 24 1 504
a 24 2 965
a 24 3 702
a 24 4 118
a 24 5 287
a 24 6 613
a 24 7 968
a 24 8 314
a 24 9 9
a 24 10 17
a 24 11 171
a 24 12 224
a 24 13 241
a 24 14 746
a 24 15 349
a 24 16 304
a 24 17 780
a 24 18 774
a 24 19 195
a 24 20 713
a 24 21 136
a 24 22 528
a 24 23 294
a 24 25 632
a 24 26 896
a 24 27 129
a 24 28 134
a 24 29 230
a 24 30 701
a 24 31 698
a 24 32 329
a 24 33 133
a 24 34 342
a 24 35 703
a 24 36 316
a 24 37 347
a 24 38 41
a 24 39 460
a 24 40 408
a 24 41 382
a 24 42 143
a 24 43 427
a 24 44 390
a 24 45 46
a 24 46 787
a 24 47 60
a 24 48 91
a 24 49 222
a 24 50 811
a 25 1 915
a 25 2 708
a 25 3 451
a 25 4 653
a 25 5 942
a 25 6 754
a 25 7 282
a 25 8 971
a 25 9 532
a 25 10 95
a 25 11 734
a 25 12 415
a 25 13 86
a 25 14 135
a 25 15 183
a 25 16 311
a 25 17 192
a 25 18 232
a 25 19 859
a 25 20 321
a 25 21 617
a 25 22 745
a 25 23 904
a 25 24 887
a 25 26 118
a 25 27 590
a 25 28 311
a 25 29 924
a 25 30 378
a 25 31 186
a 25 32 59
a 25 33 421
a 25 34 833
a 25 35 402
a 25 36 175
a 25 37 377
a 25 38 288
a 25 39 936
a 25 40 211
a 25 41 601
a 25 42 719
a 25 43 758
a 25 44 479
a 25 45 832
a 25 46 982
a 25 47 310
a 25 48 294
a 25 49 803
a 25 50 866
a 26 1 608
a 26 2 236
a 26 3 49
a 26 4 913
a 26 5 492
a 26 6 400
a 26 7 531
a 26 8 553
a 26 9 19
a 26 10 266
a 26 11 749
a 26 12 957
a 26 13 1
a 26 14 845
a 26 15 107
a 26 16 903
a 26 17 910
a 26 18 230
a 26 19 732
a 26 20 270
a 26 21 744
a 26 22 754
a 26 23 210
a 26 24 754
a 26 25 393
a 26 27 204
a 26 28 424
a 26 29 914
a 26 30 207
a 26 31 52
a 26 32 914
a 26 33 596
a 26 34 542
a 26 35 680
a 26 36 887
a 26 37 469
a 26 38 392
a 26 39 454
a 26 40 578
a 26 41 732
a 26 42 733
a 26 43 335
a 26 44 764
a 26 45 691
a 26 46 266
a 26 47 486
a 26 48 955
a 26 49 205
a 26 50 726
a 27 1 511
a 27 2 366
a 27 3 129
a 27 4 392
a 27 5 216
a 27 6 519
a 27 7 829
a 27 8 82
a 27 9 442
a 27 10 39
a 27 11 515
a 27 12 448
a 27 13 320
a 27 14 364
a 27 15 62
a 27 16 881
a 27 17 254
a 27 18 645
a 27 19 213
a 27 20 484
a 27 21 10
a 27 22 756
a 27 23 807
a 27 24 204
a 27 25 335
a 27 26 131
a 27 28 773
a 27 29 389
a 27 30 781
a 27 31 967
a 27 32 572
a 27 33 668
a 27 34 113
a 27 35 784
a 27 36 615
a 27 37 817
a 27 38 435
a 27 39 414
a 27 40 336
a 27 41 776
a 27 42 202
a 27 43 605
a 27 44 927
a 27 45 187
a 27 46 17
a 27 47 329
a 27 48 201
a 27 49 265
a 27 50 286
a 28 1 770
a 28 2 314
a 28 3 858
a 28 4 101
a 28 5 457
a 28 6 555
a 28 7 377
a 28 8 304
a 28 9 361
a 28 10 204
a 28 11 56
a 28 12 290
a 28 13 934
a 28 14 322
a 28 15 238
a 28 16 838
a 28 17 816
a 28 18 178
a 28 19 940
a 28 20 268
a 28 21 441
a 28 22 91
a 28 23 811
a 28 24 901
a 28 25 42
a 28 26 16
a 28 27 919
a 28 29 441
a 28 30 74
a 28 31 859
a 28 32 470
a 28 33 88
a 28 34 574
a 28 35 579
a 28 36 369
a 28 37 373
a 28 38 329
a 28 39 350
a 28 40 98
a 28 41 420
a 28 42 149
a 28 43 751
a 28 44 972
a 28 45 181
a 28 46 992
a 28 47 432
a 28 48 558
a 28 49 829
a 28 50 248
a 29 1 465
a 29 2 895
a 29 3 220
a 29 4 847
a 29 5 767
a 29 6 91
a 29 7 25
a 29 8 143
a 29 9 357
a 29 10 28
a 29 11 512
a 29 12 605
a 29 13 310
a 29 14 273
a 29 15 236
a 29 16 906
a 29 17 896
a 29 18 794
a 29 19 588
a 29 20 77
a 29 21 522
a 29 22 57
a 29 23 129
a 29 24 953
a 29 25 694
a 29 26 42
a 29 27 806
a 29 28 381
a 29 30 559
a 29 31 907
a 29 32 846
a 29 33 295
a 29 34 331
a 29 35 476
a 29 36 746
a 29 37 599
a 29 38 458
a 29 39 536
a 29 40 136
a 29 41 898
a 29 42 510
a 29 43 18
a 29 44 972
a 29 45 892
a 29 46 136
a 29 47 912
a 29 48 466
a 29 49 492
a 29 50 272
a 30 1 907
a 30 2 377
a 30 3 931
a 30 4 149
a 30 5 276
a 30 6 593
a 30 7 885
a 30 8 73
a 30 9 576
a 30 10 837
a 30 11 357
a 30 12 918
a 30 13 69
a 30 14 674
a 30 15 701
a 30 16 874
a 30 17 890
a 30 18 117
a 30 19 555
a 30 20 182
a 30 21 682
a 30 22 409
a 30 23 669
a 30 24 891
a 30 25 881
a 30 26 462
a 30 27 694
a 30 28 219
a 30 29 541
a 30 31 426
a 30 32 253
a 30 33 102
a 30 34 813
a 30 35 508
a 30 36 37
a 30 37 945
a 30 38 285
a 30 39 755
a 30 40 519
a 30 41 88
a 30 42 656
a 30 43 667
a 30 44 537
a 30 45 189
a 30 46 460
a 30 47 975
a 30 48 506
a 30 49 558
a 30 50 25
a 31 1 847
a 31 2 3
a 31 3 210
a 31 4 954
a 31 5 812
a 31 6 927
a 31 7 572
a 31 8 265
a 31 9 839
a 31 10 195
a 31 11 390
a 31 12 454
a 31 13 341
a 31 14 710
a 31 15 911
a 31 16 257
a 31 17 821
a 31 18 689
a 31 19 933
a 31 20 843
a 31 21 847
a 31 22 616
a 31 23 283
a 31 24 753
a 31 25 310
a 31 26 687
a 31 27 980
a 31 28 0
a 31 29 175
a 31 30 670
a 31 32 125
a 31 33 329
a 31 34 727
a 31 35 709
a 31 36 262
a 31 37 550
a 31 38 361
a 31 39 951
a 31 40 217
a 31 41 611
a 31 42 773
a 31 43 11
a 31 44 705
a 31 45 69
a 31 46 401
a 31 47 358
a 31 48 268
a 31 49 310
a 31 50 372
a 32 1 841
a 32 2 985
a 32 3 470
a 32 4 989
a 32 5 753
a 32 6 418
a 32 7 731
a 32 8 688
a 32 9 489
a 32 10 739
a 32 11 602
a 32 12 840
a 32 13 145
a 32 14 200
a 32 15 955
a 32 16 726
a 32 17 530
a 32 18 850
a 32 19 432
a 32 20 640
a 32 21 103
a 32 22 578
a 32 23 437
a 32 24 250
a 32 25 702
a 32 26 220
a 32 27 921
a 32 28 552
a 32 29 828
a 32 30 301
a 32 31 84
a 32 33 137
a 32 34 572
a 32 35 493
a 32 36 54
a 32 37 573
a 32 38 864
a 32 39 830
a 32 40 238
a 32 41 352
a 32 42 854
a 32 43 450
a 32 44 328
a 32 45 332
a 32 46 491
a 32 47 672
a 32 48 813
a 32 49 258
a 32 50 691
a 33 1 295
a 33 2 678
a 33 3 825
a 33 4 935
a 33 5 736
a 33 6 361
a 33 7 693
a 33 8 956
a 33 9 736
a 33 10 282
a 33 11 649
a 33 12 218
a 33 13 779
a 33 14 19
a 33 15 36
a 33 16 770
a 33 17 730
a 33 18 964
a 33 19 280
a 33 20 111
a 33 21 125
a 33 22 122
a 33 23 589
a 33 24 213
a 33 25 481
a 33 26 764
a 33 27 362
a 33 28 125
a 33 29 875
a 33 30 840
a 33 31 260
a 33 32 566
a 33 34 355
a 33 35 114
a 33 36 621
a 33 37 749
a 33 38 122
a 33 39 262
a 33 40 230
a 33 41 574
a 33 42 747
a 33 43 224
a 33 44 772
a 33 45 831
a 33 46 805
a 33 47 179
a 33 48 166
a 33 49 75
a 33 50 286
a 34 1 70
a 34 2 988
a 34 3 485
a 34 4 17
a 34 5 816
a 34 6 33
a 34 7 312
a 34 8 289
a 34 9 828
a 34 10 930
a 34 11 294
a 34 12 395
a 34 13 933
a 34 14 469
a 34 15 85
a 34 16 15
a 34 17 83
a 34 18 218
a 34 19 778
a 34 20 695
a 34 21 716
a 34 22 701
a 34 23 418
a 34 24 719
a 34 25 60
a 34 26 561
a 34 27 388
a 34 28 723
a 34 29 828
a 34 30 886
a 34 31 384
a 34 32 315
a 34 33 742
a 34 35 83
a 34 36 202
a 34 37 601
a 34 38 814
a 34 39 828
a 34 40 319
a 34 41 848
a 34 42 434
a 34 43 892
a 34 44 317
a 34 45 127
a 34 46 683
a 34 47 836
a 34 48 743
a 34 49 236
a 34 50 546
a 35 1 410
a 35 2 623
a 35 3 441
a 35 4 691
a 35 5 394
a 35 6 690
a 35 7 154
a 35 8 284
a 35 9 112
a 35 10 127
a 35 11 636
a 35 12 974
a 35 13 635
a 35 14 967
a 35 15 87
a 35 16 283
a 35 17 316
a 35 18 894
a 35 19 605
a 35 20 238
a 35 21 524
a 35 22 496
a 35 23 832
a 35 24 829
a 35 25 425
a 35 26 980
a 35 27 551
a 35 28 786
a 35 29 928
a 35 30 420
a 35 31 617
a 35 32 85
a 35 33 908
a 35 34 899
a 35 36 311
a 35 37 563
a 35 38 229
a 35 39 349
a 35 40 102
a 35 41 490
a 35 42 322
a 35 43 9
a 35 44 139
a 35 45 346
a 35 46 199
a 35 47 154
a 35 48 764
a 35 49 508
a 35 50 399
a 36 1 769
a 36 2 901
a 36 3 838
a 36 4 666
a 36 5 380
a 36 6 920
a 36 7 317
a 36 8 583
a 36 9 298
a 36 10 675
a 36 11 714
a 36 12 819
a 36 13 276
a 36 14 326
a 36 15 829
a 36 16 96
a 36 17 853
a 36 18 546
a 36 19 820
a 36 20 319
a 36 21 803
a 36 22 346
a 36 23 836
a 36 24 717
a 36 25 179
a 36 26 61
a 36 27 350
a 36 28 289
a 36 29 272
a 36 30 833
a 36 31 715
a 36 32 100
a 36 33 275
a 36 34 169
a 36 35 384
a 36 37 863
a 36 38 92
a 36 39 448
a 36 40 187
a 36 41 720
a 36 42 31
a 36 43 427
a 36 44 187
a 36 45 956
a 36 46 448
a 36 47 643
a 36 48 875
a 36 49 878
a 36 50 247
a 37 1 552
a 37 2 663
a 37 3 734
a 37 4 916
a 37 5 30
a 37 6 84
a 37 7 627
a 37 8 452
a 37 9 619
a 37 10 820
a 37 11 985
a 37 12 152
a 37 13 998
a 37 14 968
a 37 15 195
a 37 16 437
a 37 17 641
a 37 18 139
a 37 19 602
a 37 20 278
a 37 21 488
a 37 22 845
a 37 23 626
a 37 24 332
a 37 25 72
a 37 26 669
a 37 27 636
a 37 28 358
a 37 29 248
a 37 30 141
a 37 31 734
a 37 32 32
a 37 33 346
a 37 34 938
a 37 35 780
a 37 36 816
a 37 38 138
a 37 39 297
a 37 40 130
a 37 41 899
a 37 42 397
a 37 43 555
a 37 44 256
a 37 45 956
a 37 46 35
a 37 47 649
a 37 48 148
a 37 49 453
a 37 50 942
a 38 1 127
a 38 2 90
a 38 3 196
a 38 4 432
a 38 5 685
a 38 6 535
a 38 7 79
a 38 8 888
a 38 9 129
a 38 10 993
a 38 11 943
a 38 12 997
a 38 13 973
a 38 14 264
a 38 15 464
a 38 16 553
a 38 17 159
a 38 18 288
a 38 19 79
a 38 20 886
a 38 21 995
a 38 22 460
a 38 23 106
a 38 24 316
a 38 25 539
a 38 26 756
a 38 27 147
a 38 28 377
a 38 29 279
a 38 30 183
a 38 31 397
a 38 32 599
a 38 33 85
a 38 34 601
a 38 35 589
a 38 36 897
a 38 37 337
a 38 39 622
a 38 40 58
a 38 41 949
a 38 42 245
a 38 43 244
a 38 44 492
a 38 45 499
a 38 46 2
a 38 47 13
a 38 48 256
a 38 49 371
a 38 50 909
a 39 1 418
a 39 2 474
a 39 3 675
a 39 4 34
a 39 5 72
a 39 6 40
a 39 7 679
a 39 8 364
a 39 9 582
a 39 10 382
a 39 11 974
a 39 12 131
a 39 13 845
a 39 14 692
a 39 15 819
a 39 16 547
a 39 17 726
a 39 18 241
a 39 19 721
a 39 20 363
a 39 21 591
a 39 22 59
a 39 23 734
a 39 24 403
a 39 25 22
a 39 26 340
a 39 27 896
a 39 28 92
a 39 29 779
a 39 30 862
a 39 31 810
a 39 32 92
a 39 33 834
a 39 34 95
a 39 35 655
a 39 36 231
a 39 37 926
a 39 38 22
a 39 40 781
a 39 41 510
a 39 42 951
a 39 43 179
a 39 44 412
a 39 45 979
a 39 46 893
a 39 47 394
a 39 48 716
a 39 49 682
a 39 50 361
a 40 1 328
a 40 2 402
a 40 3 978
a 40 4 354
a 40 5 884
a 40 6 322
a 40 7 721
a 40 8 918
a 40 9 535
a 40 10 918
a 40 11 675
a 40 12 84
a 40 13 460
a 40 14 365
a 40 15 868
a 40 16 920
a 40 17 456
a 40 18 268
a 40 19 472
a 40 20 975
a 40 21 530
a 40 22 136
a 40 23 649
a 40 24 662
a 40 25 875
a 40 26 2
a 40 27 489
a 40 28 334
a 40 29 383
a 40 30 313
a 40 31 795
a 40 32 435
a 40 33 442
a 40 34 378
a 40 35 974
a 40 36 32
a 40 37 436
a 40 38 243
a 40 39 465
a 40 41 756
a 40 42 765
a 40 43 355
a 40 44 760
a 40 45 191
a 40 46 408
a 40 47 484
a 40 48 317
a 40 49 781
a 40 50 92
a 41 1 521
a 41 2 463
a 41 3 673
a 41 4 941
a 41 5 735
a 41 6 510
a 41 7 715
a 41 8 63
a 41 9 311
a 41 10 140
a 41 11 202
a 41 12 171
a 41 13 298
a 41 14 741
a 41 15 954
a 41 16 528
a 41 17 123
a 41 18 919
a 41 19 919
a 41 20 27
a 41 21 841
a 41 22 714
a 41 23 663
a 41 24 86
a 41 25 825
a 41 26 849
a 41 27 748
a 41 28 756
a 41 29 831
a 41 30 551
a 41 31 95
a 41 32 362
a 41 33 54
a 41 34 10
a 41 35 646
a 41 36 512
a 41 37 267
a 41 38 891
a 41 39 302
a 41 40 830
a 41 42 493
a 41 43 196
a 41 44 0
a 41 45 975
a 41 46 799
a 41 47 904
a 41 48 968
a 41 49 728
a 41 50 660
a 42 1 197
a 42 2 905
a 42 3 57
a 42 4 186
a 42 5 189
a 42 6 58
a 42 7 82
a 42 8 663
a 42 9 776
a 42 10 691
a 42 11 823
a 42 12 407
a 42 13 258
a 42 14 424
a 42 15 109
a 42 16 59
a 42 17 595
a 42 18 316
a 42 19 994
a 42 20 202
a 42 21 410
a 42 22 431
a 42 23 320
a 42 24 931
a 42 25 289
a 42 26 64
a 42 27 401
a 42 28 17
a 42 29 436
a 42 30 787
a 42 31 92
a 42 32 885
a 42 33 145
a 42 34 556
a 42 35 846
a 42 36 439
a 42 37 448
a 42 38 354
a 42 39 122
a 42 40 29
a 42 41 739
a 42 43 412
a 42 44 881
a 42 45 98
a 42 46 47
a 42 47 702
a 42 48 106
a 42 49 296
a 42 50 537
a 43 1 101
a 43 2 386
a 43 3 725
a 43 4 690
a 43 5 558
a 43 6 797
a 43 7 450
a 43 8 83
a 43 9 483
a 43 10 531
a 43 11 822
a 43 12 409
a 43 13 125
a 43 14 890
a 43 15 207
a 43 16 505
a 43 17 530
a 43 18 83
a 43 19 65
a 43 20 188
a 43 21 368
a 43 22 932
a 43 23 516
a 43 24 724
a 43 25 432
a 43 26 914
a 43 27 273
a 43 28 941
a 43 29 19
a 43 30 250
a 43 31 653
a 43 32 332
a 43 33 568
a 43 34 82
a 43 35 517
a 43 36 635
a 43 37 35
a 43 38 973
a 43 39 80
a 43 40 218
a 43 41 279
a 43 42 836
a 43 44 216
a 43 45 527
a 43 46 437
a 43 47 668
a 43 48 984
a 43 49 95
a 43 50 18
a 44 1 886
a 44 2 238
a 44 3 618
a 44 4 204
a 44 5 90
a 44 6 778
a 44 7 954
a 44 8 389
a 44 9 827
a 44 10 805
a 44 11 419
a 44 12 526
a 44 13 893
a 44 14 283
a 44 15 292
a 44 16 749
a 44 17 146
a 44 18 985
a 44 19 37
a 44 20 511
a 44 21 360
a 44 22 150
a 44 23 503
a 44 24 510
a 44 25 195
a 44 26 749
a 44 27 158
a 44 28 643
a 44 29 217
a 44 30 401
a 44 31 377
a 44 32 684
a 44 33 377
a 44 34 72
a 44 35 632
a 44 36 831
a 44 37 419
a 44 38 25
a 44 39 893
a 44 40 597
a 44 41 970
a 44 42 597
a 44 43 683
a 44 45 207
a 44 46 204
a 44 47 336
a 44 48 930
a 44 49 420
a 44 50 576
a 45 1 984
a 45 2 728
a 45 3 905
a 45 4 422
a 45 5 821
a 45 6 496
a 45 7 974
a 45 8 882
a 45 9 807
a 45 10 167
a 45 11 831
a 45 12 801
a 45 13 27
a 45 14 65
a 45 15 48
a 45 16 914
a 45 17 550
a 45 18 256
a 45 19 144
a 45 20 950
a 45 21 711
a 45 22 765
a 45 23 854
a 45 24 233
a 45 25 321
a 45 26 516
a 45 27 855
a 45 28 326
a 45 29 630
a 45 30 788
a 45 31 701
a 45 32 117
a 45 33 228
a 45 34 68
a 45 35 336
a 45 36 344
a 45 37 52
a 45 38 303
a 45 39 729
a 45 40 104
a 45 41 613
a 45 42 824
a 45 43 266
a 45 44 477
a 45 46 565
a 45 47 110
a 45 48 79
a 45 49 843
a 45 50 688
a 46 1 401
a 46 2 423
a 46 3 150
a 46 4 966
a 46 5 434
a 46 6 826
a 46 7 390
a 46 8 769
a 46 9 431
a 46 10 604
a 46 11 802
a 46 12 796
a 46 13 524
a 46 14 104
a 46 15 345
a 46 16 420
a 46 17 866
a 46 18 574
a 46 19 4
a 46 20 666
a 46 21 91
a 46 22 382
a 46 23 758
a 46 24 575
a 46 25 467
a 46 26 914
a 46 27 267
a 46 28 239
a 46 29 832
a 46 30 863
a 46 31 259
a 46 32 478
a 46 33 187
a 46 34 51
a 46 35 104
a 46 36 109
a 46 37 213
a 46 38 32
a 46 39 371
a 46 40 877
a 46 41 890
a 46 42 199
a 46 43 378
a 46 44 234
a 46 45 560
a 46 47 310
a 46 48 949
a 46 49 953
a 46 50 40
a 47 1 138
a 47 2 684
a 47 3 441
a 47 4 172
a 47 5 77
a 47 6 258
a 47 7 470
a 47 8 175
a 47 9 872
a 47 10 69
a 47 11 313
a 47 12 440
a 47 13 377
a 47 14 522
a 47 15 984
a 47 16 62
a 47 17 23
a 47 18 573
a 47 19 140
a 47 20 636
a 47 21 48
a 47 22 431
a 47 23 197
a 47 24 502
a 47 25 705
a 47 26 189
a 47 27 328
a 47 28 234
a 47 29 38
a 47 30 400
a 47 31 457
a 47 32 368
a 47 33 572
a 47 34 511
a 47 35 640
a 47 36 178
a 47 37 262
a 47 38 62
a 47 39 424
a 47 40 364
a 47 41 181
a 47 42 705
a 47 43 763
a 47 44 868
a 47 45 222
a 47 46 905
a 47 48 463
a 47 49 2
a 47 50 72
a 48 1 245
a 48 2 547
a 48 3 25
a 48 4 322
a 48 5 594
a 48 6 986
a 48 7 604
a 48 8 833
a 48 9 92
a 48 10 574
a 48 11 441
a 48 12 943
a 48 13 2
a 48 14 325
a 48 15 81
a 48 16 21
a 48 17 933
a 48 18 336
a 48 19 21
a 48 20 257
a 48 21 320
a 48 22 702
a 48 23 882
a 48 24 256
a 48 25 953
a 48 26 157
a 48 27 942
a 48 28 677
a 48 29 574
a 48 30 929
a 48 31 920
a 48 32 951
a 48 33 721
a 48 34 210
a 48 35 323
a 48 36 903
a 48 37 948
a 48 38 314
a 48 39 571
a 48 40 535
a 48 41 677
a 48 42 380
a 48 43 437
a 48 44 483
a 48 45 35
a 48 46 846
a 48 47 619
a 48 49 787
a 48 50 694
a 49 1 119
a 49 2 302
a 49 3 383
a 49 4 578
a 49 5 385
a 49 6 129
a 49 7 49
a 49 8 420
a 49 9 911
a 49 10 740
a 49 11 206
a 49 12 771
a 49 13 696
a 49 14 870
a 49 15 148
a 49 16 239
a 49 17 442
a 49 18 482
a 49 19 77
a 49 20 965
a 49 21 279
a 49 22 746
a 49 23 859
a 49 24 17
a 49 25 611
a 49 26 774
a 49 27 113
a 49 28 35
a 49 29 435
a 49 30 166
a 49 31 920
a 49 32 834
a 49 33 190
a 49 34 387
a 49 35 518
a 49 36 251
a 49 37 568
a 49 38 34
a 49 39 896
a 49 40 394
a 49 41 50
a 49 42 416
a 49 43 689
a 49 44 966
a 49 45 931
a 49 46 342
a 49 47 632
a 49 48 193
a 49 50 713
a 50 1 830
a 50 2 870
a 50 3 326
a 50 4 584
a 50 5 467
a 50 6 309
a 50 7 673
a 50 8 913
a 50 9 573
a 50 10 737
a 50 11 762
a 50 12 707
a 50 13 874
a 50 14 706
a 50 15 193
a 50 16 542
a 50 17 998
a 50 18 296
a 50 19 555
a 50 20 867
a 50 21 587
a 50 22 93
a 50 23 955
a 50 24 172
a 50 25 145
a 50 26 398
a 50 27 161
a 50 28 257
a 50 29 47
a 50 30 98
a 50 31 270
a 50 32 465
a 50 33 927
a 50 34 968
a 50 35 653
a 50 36 220
a 50 37 757
a 50 38 933
a 50 39 500
a 50 40 440
a 50 41 576
a 50 42 843
a 50 43 248
a 50 44 536
a 50 45 576
a 50 46 27
a 50 47 124
a 50 48 38
a 50 49 53
